50 4
25 33 70 60 27 12 27 51 28 95 70 25 97 26 54 37 52 85 62 29 88 68 63 41 81 47 48 102 23 111 50 53 72 99 79 66 58 85 61 57 51 55 59 62 70 12 24 47 6 85
24 43 94 58 54 21 37 72 11 110 61 39 91 47 46 35 42 91 51 21 105 70 58 32 82 57 46 91 42 90 73 52 79 95 89 80 37 108 54 62 34 56 85 84 41 6 17 74 24 81
34 32 67 56 36 19 35 51 20 111 50 30 79 32 58 47 54 94 61 19 80 46 57 15 101 50 57 108 30 99 66 56 64 101 88 90 56 109 68 55 32 58 87 61 60 8 26 70 22 107
30 25 78 36 34 34 17 42 30 113 66 38 81 42 59 62 46 81 64 13 84 50 63 20 99 55 36 93 31 100 51 47 53 105 81 82 47 107 74 58 41 53 62 77 62 13 15 48 35 104
